# Fcc Cu oriented X=[100] Y=[010] Z=[001].
1.000000
     14.46000000        0.00000000        0.00000000
      0.00000000       14.46000000        0.00000000
      0.00000000        0.00000000       14.46000000
 Cu
   255
Cartesian
      1.80750000        1.80750000        0.00000000
      0.00000000        1.80750000        1.80750000
      1.80750000        0.00000000        1.80750000
      3.61500000        0.00000000        0.00000000
      5.42250000        1.80750000        0.00000000
      3.61500000        1.80750000        1.80750000
      5.42250000        0.00000000        1.80750000
      7.23000000        0.00000000        0.00000000
      9.03750000        1.80750000        0.00000000
      7.23000000        1.80750000        1.80750000
      9.03750000        0.00000000        1.80750000
     10.84500000        0.00000000        0.00000000
     12.65250000        1.80750000        0.00000000
     10.84500000        1.80750000        1.80750000
     12.65250000        0.00000000        1.80750000
      0.00000000        3.61500000        0.00000000
      1.80750000        5.42250000        0.00000000
      0.00000000        5.42250000        1.80750000
      1.80750000        3.61500000        1.80750000
      3.61500000        3.61500000        0.00000000
      5.42250000        5.42250000        0.00000000
      3.61500000        5.42250000        1.80750000
      5.42250000        3.61500000        1.80750000
      7.23000000        3.61500000        0.00000000
      9.03750000        5.42250000        0.00000000
      7.23000000        5.42250000        1.80750000
      9.03750000        3.61500000        1.80750000
     10.84500000        3.61500000        0.00000000
     12.65250000        5.42250000        0.00000000
     10.84500000        5.42250000        1.80750000
     12.65250000        3.61500000        1.80750000
      0.00000000        7.23000000        0.00000000
      1.80750000        9.03750000        0.00000000
      0.00000000        9.03750000        1.80750000
      1.80750000        7.23000000        1.80750000
      3.61500000        7.23000000        0.00000000
      5.42250000        9.03750000        0.00000000
      3.61500000        9.03750000        1.80750000
      5.42250000        7.23000000        1.80750000
      7.23000000        7.23000000        0.00000000
      9.03750000        9.03750000        0.00000000
      7.23000000        9.03750000        1.80750000
      9.03750000        7.23000000        1.80750000
     10.84500000        7.23000000        0.00000000
     12.65250000        9.03750000        0.00000000
     10.84500000        9.03750000        1.80750000
     12.65250000        7.23000000        1.80750000
      0.00000000       10.84500000        0.00000000
      1.80750000       12.65250000        0.00000000
      0.00000000       12.65250000        1.80750000
      1.80750000       10.84500000        1.80750000
      3.61500000       10.84500000        0.00000000
      5.42250000       12.65250000        0.00000000
      3.61500000       12.65250000        1.80750000
      5.42250000       10.84500000        1.80750000
      7.23000000       10.84500000        0.00000000
      9.03750000       12.65250000        0.00000000
      7.23000000       12.65250000        1.80750000
      9.03750000       10.84500000        1.80750000
     10.84500000       10.84500000        0.00000000
     12.65250000       12.65250000        0.00000000
     10.84500000       12.65250000        1.80750000
     12.65250000       10.84500000        1.80750000
      0.00000000        0.00000000        3.61500000
      1.80750000        1.80750000        3.61500000
      0.00000000        1.80750000        5.42250000
      1.80750000        0.00000000        5.42250000
      3.61500000        0.00000000        3.61500000
      5.42250000        1.80750000        3.61500000
      3.61500000        1.80750000        5.42250000
      5.42250000        0.00000000        5.42250000
      7.23000000        0.00000000        3.61500000
      9.03750000        1.80750000        3.61500000
      7.23000000        1.80750000        5.42250000
      9.03750000        0.00000000        5.42250000
     10.84500000        0.00000000        3.61500000
     12.65250000        1.80750000        3.61500000
     10.84500000        1.80750000        5.42250000
     12.65250000        0.00000000        5.42250000
      0.00000000        3.61500000        3.61500000
      1.80750000        5.42250000        3.61500000
      0.00000000        5.42250000        5.42250000
      1.80750000        3.61500000        5.42250000
      3.61500000        3.61500000        3.61500000
      5.42250000        5.42250000        3.61500000
      3.61500000        5.42250000        5.42250000
      5.42250000        3.61500000        5.42250000
      7.23000000        3.61500000        3.61500000
      9.03750000        5.42250000        3.61500000
      7.23000000        5.42250000        5.42250000
      9.03750000        3.61500000        5.42250000
     10.84500000        3.61500000        3.61500000
     12.65250000        5.42250000        3.61500000
     10.84500000        5.42250000        5.42250000
     12.65250000        3.61500000        5.42250000
      0.00000000        7.23000000        3.61500000
      1.80750000        9.03750000        3.61500000
      0.00000000        9.03750000        5.42250000
      1.80750000        7.23000000        5.42250000
      3.61500000        7.23000000        3.61500000
      5.42250000        9.03750000        3.61500000
      3.61500000        9.03750000        5.42250000
      5.42250000        7.23000000        5.42250000
      7.23000000        7.23000000        3.61500000
      9.03750000        9.03750000        3.61500000
      7.23000000        9.03750000        5.42250000
      9.03750000        7.23000000        5.42250000
     10.84500000        7.23000000        3.61500000
     12.65250000        9.03750000        3.61500000
     10.84500000        9.03750000        5.42250000
     12.65250000        7.23000000        5.42250000
      0.00000000       10.84500000        3.61500000
      1.80750000       12.65250000        3.61500000
      0.00000000       12.65250000        5.42250000
      1.80750000       10.84500000        5.42250000
      3.61500000       10.84500000        3.61500000
      5.42250000       12.65250000        3.61500000
      3.61500000       12.65250000        5.42250000
      5.42250000       10.84500000        5.42250000
      7.23000000       10.84500000        3.61500000
      9.03750000       12.65250000        3.61500000
      7.23000000       12.65250000        5.42250000
      9.03750000       10.84500000        5.42250000
     10.84500000       10.84500000        3.61500000
     12.65250000       12.65250000        3.61500000
     10.84500000       12.65250000        5.42250000
     12.65250000       10.84500000        5.42250000
      0.00000000        0.00000000        7.23000000
      1.80750000        1.80750000        7.23000000
      0.00000000        1.80750000        9.03750000
      1.80750000        0.00000000        9.03750000
      3.61500000        0.00000000        7.23000000
      5.42250000        1.80750000        7.23000000
      3.61500000        1.80750000        9.03750000
      5.42250000        0.00000000        9.03750000
      7.23000000        0.00000000        7.23000000
      9.03750000        1.80750000        7.23000000
      7.23000000        1.80750000        9.03750000
      9.03750000        0.00000000        9.03750000
     10.84500000        0.00000000        7.23000000
     12.65250000        1.80750000        7.23000000
     10.84500000        1.80750000        9.03750000
     12.65250000        0.00000000        9.03750000
      0.00000000        3.61500000        7.23000000
      1.80750000        5.42250000        7.23000000
      0.00000000        5.42250000        9.03750000
      1.80750000        3.61500000        9.03750000
      3.61500000        3.61500000        7.23000000
      5.42250000        5.42250000        7.23000000
      3.61500000        5.42250000        9.03750000
      5.42250000        3.61500000        9.03750000
      7.23000000        3.61500000        7.23000000
      9.03750000        5.42250000        7.23000000
      7.23000000        5.42250000        9.03750000
      9.03750000        3.61500000        9.03750000
     10.84500000        3.61500000        7.23000000
     12.65250000        5.42250000        7.23000000
     10.84500000        5.42250000        9.03750000
     12.65250000        3.61500000        9.03750000
      0.00000000        7.23000000        7.23000000
      1.80750000        9.03750000        7.23000000
      0.00000000        9.03750000        9.03750000
      1.80750000        7.23000000        9.03750000
      3.61500000        7.23000000        7.23000000
      5.42250000        9.03750000        7.23000000
      3.61500000        9.03750000        9.03750000
      5.42250000        7.23000000        9.03750000
      7.23000000        7.23000000        7.23000000
      9.03750000        9.03750000        7.23000000
      7.23000000        9.03750000        9.03750000
      9.03750000        7.23000000        9.03750000
     10.84500000        7.23000000        7.23000000
     12.65250000        9.03750000        7.23000000
     10.84500000        9.03750000        9.03750000
     12.65250000        7.23000000        9.03750000
      0.00000000       10.84500000        7.23000000
      1.80750000       12.65250000        7.23000000
      0.00000000       12.65250000        9.03750000
      1.80750000       10.84500000        9.03750000
      3.61500000       10.84500000        7.23000000
      5.42250000       12.65250000        7.23000000
      3.61500000       12.65250000        9.03750000
      5.42250000       10.84500000        9.03750000
      7.23000000       10.84500000        7.23000000
      9.03750000       12.65250000        7.23000000
      7.23000000       12.65250000        9.03750000
      9.03750000       10.84500000        9.03750000
     10.84500000       10.84500000        7.23000000
     12.65250000       12.65250000        7.23000000
     10.84500000       12.65250000        9.03750000
     12.65250000       10.84500000        9.03750000
      0.00000000        0.00000000       10.84500000
      1.80750000        1.80750000       10.84500000
      0.00000000        1.80750000       12.65250000
      1.80750000        0.00000000       12.65250000
      3.61500000        0.00000000       10.84500000
      5.42250000        1.80750000       10.84500000
      3.61500000        1.80750000       12.65250000
      5.42250000        0.00000000       12.65250000
      7.23000000        0.00000000       10.84500000
      9.03750000        1.80750000       10.84500000
      7.23000000        1.80750000       12.65250000
      9.03750000        0.00000000       12.65250000
     10.84500000        0.00000000       10.84500000
     12.65250000        1.80750000       10.84500000
     10.84500000        1.80750000       12.65250000
     12.65250000        0.00000000       12.65250000
      0.00000000        3.61500000       10.84500000
      1.80750000        5.42250000       10.84500000
      0.00000000        5.42250000       12.65250000
      1.80750000        3.61500000       12.65250000
      3.61500000        3.61500000       10.84500000
      5.42250000        5.42250000       10.84500000
      3.61500000        5.42250000       12.65250000
      5.42250000        3.61500000       12.65250000
      7.23000000        3.61500000       10.84500000
      9.03750000        5.42250000       10.84500000
      7.23000000        5.42250000       12.65250000
      9.03750000        3.61500000       12.65250000
     10.84500000        3.61500000       10.84500000
     12.65250000        5.42250000       10.84500000
     10.84500000        5.42250000       12.65250000
     12.65250000        3.61500000       12.65250000
      0.00000000        7.23000000       10.84500000
      1.80750000        9.03750000       10.84500000
      0.00000000        9.03750000       12.65250000
      1.80750000        7.23000000       12.65250000
      3.61500000        7.23000000       10.84500000
      5.42250000        9.03750000       10.84500000
      3.61500000        9.03750000       12.65250000
      5.42250000        7.23000000       12.65250000
      7.23000000        7.23000000       10.84500000
      9.03750000        9.03750000       10.84500000
      7.23000000        9.03750000       12.65250000
      9.03750000        7.23000000       12.65250000
     10.84500000        7.23000000       10.84500000
     12.65250000        9.03750000       10.84500000
     10.84500000        9.03750000       12.65250000
     12.65250000        7.23000000       12.65250000
      0.00000000       10.84500000       10.84500000
      1.80750000       12.65250000       10.84500000
      0.00000000       12.65250000       12.65250000
      1.80750000       10.84500000       12.65250000
      3.61500000       10.84500000       10.84500000
      5.42250000       12.65250000       10.84500000
      3.61500000       12.65250000       12.65250000
      5.42250000       10.84500000       12.65250000
      7.23000000       10.84500000       10.84500000
      9.03750000       12.65250000       10.84500000
      7.23000000       12.65250000       12.65250000
      9.03750000       10.84500000       12.65250000
     10.84500000       10.84500000       10.84500000
     12.65250000       12.65250000       10.84500000
     10.84500000       12.65250000       12.65250000
     12.65250000       10.84500000       12.65250000
