# File generated with Atomsk by hari on 2023-02-02 19:03:59
1.000000
     15.33714608        0.00000000        0.00000000
      7.66857304       13.28235813        0.00000000
      7.66857304        4.42745271       12.52272734
 Cu
   215
Cartesian
      0.00000000        0.00000000        0.00000000
      1.27809551        0.73790879        2.08712122
      2.55619101        1.47581757        4.17424245
      3.83428652        2.21372636        6.26136367
      5.11238203        2.95163514        8.34848489
      6.39047753        3.68954393       10.43560612
      1.27809551        2.21372636        0.00000000
      2.55619101        2.95163514        2.08712122
      3.83428652        3.68954393        4.17424245
      5.11238203        4.42745271        6.26136367
      6.39047753        5.16536150        8.34848489
      7.66857304        5.90327028       10.43560612
      2.55619101        4.42745271        0.00000000
      3.83428652        5.16536150        2.08712122
      5.11238203        5.90327028        4.17424245
      6.39047753        6.64117907        6.26136367
      7.66857304        7.37908785        8.34848489
      8.94666855        8.11699664       10.43560612
      3.83428652        6.64117907        0.00000000
      5.11238203        7.37908785        2.08712122
      6.39047753        8.11699664        4.17424245
      7.66857304        8.85490542        6.26136367
      8.94666855        9.59281421        8.34848489
     10.22476406       10.33072299       10.43560612
      5.11238203        8.85490542        0.00000000
      6.39047753        9.59281421        2.08712122
      7.66857304       10.33072299        4.17424245
      8.94666855       11.06863178        6.26136367
     10.22476406       11.80654056        8.34848489
     11.50285956       12.54444935       10.43560612
      6.39047753       11.06863178        0.00000000
      7.66857304       11.80654056        2.08712122
      8.94666855       12.54444935        4.17424245
     10.22476406       13.28235813        6.26136367
     11.50285956       14.02026692        8.34848489
     12.78095507       14.75817570       10.43560612
      2.55619101       -0.00000000       -0.00000000
      3.83428652        0.73790879        2.08712122
      5.11238203        1.47581757        4.17424245
      6.39047753        2.21372636        6.26136367
      7.66857304        2.95163514        8.34848489
      8.94666855        3.68954393       10.43560612
      3.83428652        2.21372636        0.00000000
      5.11238203        2.95163514        2.08712122
      6.39047753        3.68954393        4.17424245
      7.66857304        4.42745271        6.26136367
      8.94666855        5.16536150        8.34848489
     10.22476406        5.90327028       10.43560612
      5.11238203        4.42745271       -0.00000000
      6.39047753        5.16536150        2.08712122
      7.66857304        5.90327028        4.17424245
      8.94666855        6.64117907        6.26136367
     10.22476406        7.37908785        8.34848489
     11.50285956        8.11699664       10.43560612
      6.39047753        6.64117907        0.00000000
      7.66857304        7.37908785        2.08712122
      8.94666855        8.11699664        4.17424245
     10.22476406        8.85490542        6.26136367
     11.50285956        9.59281421        8.34848489
     12.78095507       10.33072299       10.43560612
      7.66857304        8.85490542       -0.00000000
      8.94666855        9.59281421        2.08712122
     10.22476406       10.33072299        4.17424245
     11.50285956       11.06863178        6.26136367
     12.78095507       11.80654056        8.34848489
     14.05905058       12.54444935       10.43560612
      8.94666855       11.06863178       -0.00000000
     10.22476406       11.80654056        2.08712122
     11.50285956       12.54444935        4.17424245
     12.78095507       13.28235813        6.26136367
     14.05905058       14.02026692        8.34848489
     15.33714608       14.75817570       10.43560612
      5.11238203       -0.00000000       -0.00000000
      6.39047753        0.73790879        2.08712122
      7.66857304        1.47581757        4.17424245
      8.94666855        2.21372636        6.26136367
     10.22476406        2.95163514        8.34848489
     11.50285956        3.68954393       10.43560612
      6.39047753        2.21372636       -0.00000000
      7.66857304        2.95163514        2.08712122
      8.94666855        3.68954393        4.17424245
     10.22476406        4.42745271        6.26136367
     11.50285956        5.16536150        8.34848489
     12.78095507        5.90327028       10.43560612
      7.66857304        4.42745271        0.00000000
      8.94666855        5.16536150        2.08712122
     10.22476406        5.90327028        4.17424245
     11.50285956        6.64117907        6.26136367
     12.78095507        7.37908785        8.34848489
     14.05905058        8.11699664       10.43560612
      8.94666855        6.64117907       -0.00000000
     10.22476406        7.37908785        2.08712122
     11.50285956        8.11699664        4.17424245
     12.78095507        8.85490542        6.26136367
     14.05905058        9.59281421        8.34848489
     15.33714608       10.33072299       10.43560612
     10.22476406        8.85490542       -0.00000000
     11.50285956        9.59281421        2.08712122
     12.78095507       10.33072299        4.17424245
     14.05905058       11.06863178        6.26136367
     15.33714608       11.80654056        8.34848489
     16.61524159       12.54444935       10.43560612
     11.50285956       11.06863178        0.00000000
     12.78095507       11.80654056        2.08712122
     14.05905058       12.54444935        4.17424245
     15.33714608       13.28235813        6.26136367
     16.61524159       14.02026692        8.34848489
     17.89333710       14.75817570       10.43560612
      7.66857304       -0.00000000       -0.00000000
      8.94666855        0.73790879        2.08712122
     10.22476406        1.47581757        4.17424245
     11.50285956        2.21372636        6.26136367
     12.78095507        2.95163514        8.34848489
     14.05905058        3.68954393       10.43560612
      8.94666855        2.21372636        0.00000000
     10.22476406        2.95163514        2.08712122
     11.50285956        3.68954393        4.17424245
     12.78095507        4.42745271        6.26136367
     14.05905058        5.16536150        8.34848489
     15.33714608        5.90327028       10.43560612
     10.22476406        4.42745271       -0.00000000
     11.50285956        5.16536150        2.08712122
     12.78095507        5.90327028        4.17424245
     14.05905058        6.64117907        6.26136367
     15.33714608        7.37908785        8.34848489
     16.61524159        8.11699664       10.43560612
     11.50285956        6.64117907       -0.00000000
     12.78095507        7.37908785        2.08712122
     14.05905058        8.11699664        4.17424245
     16.61524159        9.59281421        8.34848489
     17.89333710       10.33072299       10.43560612
     12.78095507        8.85490542       -0.00000000
     14.05905058        9.59281421        2.08712122
     15.33714608       10.33072299        4.17424245
     16.61524159       11.06863178        6.26136367
     17.89333710       11.80654056        8.34848489
     19.17143260       12.54444935       10.43560612
     14.05905058       11.06863178        0.00000000
     15.33714608       11.80654056        2.08712122
     16.61524159       12.54444935        4.17424245
     17.89333710       13.28235813        6.26136367
     19.17143260       14.02026692        8.34848489
     20.44952811       14.75817570       10.43560612
     10.22476406       -0.00000000       -0.00000000
     11.50285956        0.73790879        2.08712122
     12.78095507        1.47581757        4.17424245
     14.05905058        2.21372636        6.26136367
     15.33714608        2.95163514        8.34848489
     16.61524159        3.68954393       10.43560612
     11.50285956        2.21372636       -0.00000000
     12.78095507        2.95163514        2.08712122
     14.05905058        3.68954393        4.17424245
     15.33714608        4.42745271        6.26136367
     16.61524159        5.16536150        8.34848489
     17.89333710        5.90327028       10.43560612
     12.78095507        4.42745271       -0.00000000
     14.05905058        5.16536150        2.08712122
     15.33714608        5.90327028        4.17424245
     16.61524159        6.64117907        6.26136367
     17.89333710        7.37908785        8.34848489
     19.17143260        8.11699664       10.43560612
     14.05905058        6.64117907       -0.00000000
     15.33714608        7.37908785        2.08712122
     16.61524159        8.11699664        4.17424245
     17.89333710        8.85490542        6.26136367
     19.17143260        9.59281421        8.34848489
     20.44952811       10.33072299       10.43560612
     15.33714608        8.85490542        0.00000000
     16.61524159        9.59281421        2.08712122
     17.89333710       10.33072299        4.17424245
     19.17143260       11.06863178        6.26136367
     20.44952811       11.80654056        8.34848489
     21.72762362       12.54444935       10.43560612
     16.61524159       11.06863178        0.00000000
     17.89333710       11.80654056        2.08712122
     19.17143260       12.54444935        4.17424245
     20.44952811       13.28235813        6.26136367
     21.72762362       14.02026692        8.34848489
     23.00571913       14.75817570       10.43560612
     12.78095507       -0.00000000       -0.00000000
     14.05905058        0.73790879        2.08712122
     15.33714608        1.47581757        4.17424245
     16.61524159        2.21372636        6.26136367
     17.89333710        2.95163514        8.34848489
     19.17143260        3.68954393       10.43560612
     14.05905058        2.21372636       -0.00000000
     15.33714608        2.95163514        2.08712122
     16.61524159        3.68954393        4.17424245
     17.89333710        4.42745271        6.26136367
     19.17143260        5.16536150        8.34848489
     20.44952811        5.90327028       10.43560612
     15.33714608        4.42745271       -0.00000000
     16.61524159        5.16536150        2.08712122
     17.89333710        5.90327028        4.17424245
     19.17143260        6.64117907        6.26136367
     20.44952811        7.37908785        8.34848489
     21.72762362        8.11699664       10.43560612
     16.61524159        6.64117907        0.00000000
     17.89333710        7.37908785        2.08712122
     19.17143260        8.11699664        4.17424245
     20.44952811        8.85490542        6.26136367
     21.72762362        9.59281421        8.34848489
     23.00571913       10.33072299       10.43560612
     17.89333710        8.85490542        0.00000000
     19.17143260        9.59281421        2.08712122
     20.44952811       10.33072299        4.17424245
     21.72762362       11.06863178        6.26136367
     23.00571913       11.80654056        8.34848489
     24.28381463       12.54444935       10.43560612
     19.17143260       11.06863178       -0.00000000
     20.44952811       11.80654056        2.08712122
     21.72762362       12.54444935        4.17424245
     23.00571913       13.28235813        6.26136367
     24.28381463       14.02026692        8.34848489
     25.56191014       14.75817570       10.43560612
