# File generated with Atomsk by hari on 2023-02-03 00:41:20
1.000000
     10.84500000        0.00000000        0.00000000
      0.00000000       10.84500000        0.00000000
      0.00000000        0.00000000       10.84500000
 Cu
   107
Cartesian
      0.00000000        1.80750000        1.80750000
      1.80750000        0.00000000        1.80750000
      1.80750000        1.80750000        0.00000000
      0.00000000        0.00000000        3.61500000
      0.00000000        1.80750000        5.42250000
      1.80750000        0.00000000        5.42250000
      1.80750000        1.80750000        3.61500000
      0.00000000        0.00000000        7.23000000
      0.00000000        1.80750000        9.03750000
      1.80750000        0.00000000        9.03750000
      1.80750000        1.80750000        7.23000000
      0.00000000        3.61500000        0.00000000
      0.00000000        5.42250000        1.80750000
      1.80750000        3.61500000        1.80750000
      1.80750000        5.42250000        0.00000000
      0.00000000        3.61500000        3.61500000
      0.00000000        5.42250000        5.42250000
      1.80750000        3.61500000        5.42250000
      1.80750000        5.42250000        3.61500000
      0.00000000        3.61500000        7.23000000
      0.00000000        5.42250000        9.03750000
      1.80750000        3.61500000        9.03750000
      1.80750000        5.42250000        7.23000000
      0.00000000        7.23000000        0.00000000
      0.00000000        9.03750000        1.80750000
      1.80750000        7.23000000        1.80750000
      1.80750000        9.03750000        0.00000000
      0.00000000        7.23000000        3.61500000
      0.00000000        9.03750000        5.42250000
      1.80750000        7.23000000        5.42250000
      1.80750000        9.03750000        3.61500000
      0.00000000        7.23000000        7.23000000
      0.00000000        9.03750000        9.03750000
      1.80750000        7.23000000        9.03750000
      1.80750000        9.03750000        7.23000000
      3.61500000        0.00000000        0.00000000
      3.61500000        1.80750000        1.80750000
      5.42250000        0.00000000        1.80750000
      5.42250000        1.80750000        0.00000000
      3.61500000        0.00000000        3.61500000
      3.61500000        1.80750000        5.42250000
      5.42250000        0.00000000        5.42250000
      5.42250000        1.80750000        3.61500000
      3.61500000        0.00000000        7.23000000
      3.61500000        1.80750000        9.03750000
      5.42250000        0.00000000        9.03750000
      5.42250000        1.80750000        7.23000000
      3.61500000        3.61500000        0.00000000
      3.61500000        5.42250000        1.80750000
      5.42250000        3.61500000        1.80750000
      5.42250000        5.42250000        0.00000000
      3.61500000        3.61500000        3.61500000
      3.61500000        5.42250000        5.42250000
      5.42250000        3.61500000        5.42250000
      5.42250000        5.42250000        3.61500000
      3.61500000        3.61500000        7.23000000
      3.61500000        5.42250000        9.03750000
      5.42250000        3.61500000        9.03750000
      5.42250000        5.42250000        7.23000000
      3.61500000        7.23000000        0.00000000
      3.61500000        9.03750000        1.80750000
      5.42250000        7.23000000        1.80750000
      5.42250000        9.03750000        0.00000000
      3.61500000        7.23000000        3.61500000
      3.61500000        9.03750000        5.42250000
      5.42250000        7.23000000        5.42250000
      5.42250000        9.03750000        3.61500000
      3.61500000        7.23000000        7.23000000
      3.61500000        9.03750000        9.03750000
      5.42250000        7.23000000        9.03750000
      5.42250000        9.03750000        7.23000000
      7.23000000        0.00000000        0.00000000
      7.23000000        1.80750000        1.80750000
      9.03750000        0.00000000        1.80750000
      9.03750000        1.80750000        0.00000000
      7.23000000        0.00000000        3.61500000
      7.23000000        1.80750000        5.42250000
      9.03750000        0.00000000        5.42250000
      9.03750000        1.80750000        3.61500000
      7.23000000        0.00000000        7.23000000
      7.23000000        1.80750000        9.03750000
      9.03750000        0.00000000        9.03750000
      9.03750000        1.80750000        7.23000000
      7.23000000        3.61500000        0.00000000
      7.23000000        5.42250000        1.80750000
      9.03750000        3.61500000        1.80750000
      9.03750000        5.42250000        0.00000000
      7.23000000        3.61500000        3.61500000
      7.23000000        5.42250000        5.42250000
      9.03750000        3.61500000        5.42250000
      9.03750000        5.42250000        3.61500000
      7.23000000        3.61500000        7.23000000
      7.23000000        5.42250000        9.03750000
      9.03750000        3.61500000        9.03750000
      9.03750000        5.42250000        7.23000000
      7.23000000        7.23000000        0.00000000
      7.23000000        9.03750000        1.80750000
      9.03750000        7.23000000        1.80750000
      9.03750000        9.03750000        0.00000000
      7.23000000        7.23000000        3.61500000
      7.23000000        9.03750000        5.42250000
      9.03750000        7.23000000        5.42250000
      9.03750000        9.03750000        3.61500000
      7.23000000        7.23000000        7.23000000
      7.23000000        9.03750000        9.03750000
      9.03750000        7.23000000        9.03750000
      9.03750000        9.03750000        7.23000000
